
Gurobi 11.0.1 (win64) logging started Thu Mar 14 08:01:57 2024

Set parameter LogFile to value "C:\Projetos\Job_Rotation_Algorithms\Outputs\GurobiLogs\gurobi_log-output-31_ros-c34-BorbaRittModel-NoExtraConstraint-2.log"
Gurobi Optimizer version 11.0.1 build v11.0.1rc0 (win64 - Windows 10.0 (19045.2))

CPU model: 11th Gen Intel(R) Core(TM) i7-1165G7 @ 2.80GHz, instruction set [SSE2|AVX|AVX2|AVX512]
Thread count: 4 physical cores, 8 logical processors, using up to 1 threads


Gurobi 11.0.1 (win64) logging started Fri Mar 15 00:39:24 2024

Set parameter LogFile to value "C:\Projetos\Job_Rotation_Algorithms\Outputs\GurobiLogs\gurobi_log-output-31_ros-c34-BorbaRittModel-NoExtraConstraint-2.log"
Gurobi Optimizer version 11.0.1 build v11.0.1rc0 (win64 - Windows 10.0 (19045.2))

CPU model: 11th Gen Intel(R) Core(TM) i7-1165G7 @ 2.80GHz, instruction set [SSE2|AVX|AVX2|AVX512]
Thread count: 4 physical cores, 8 logical processors, using up to 1 threads


Gurobi 11.0.1 (win64) logging started Sat Mar 16 12:25:48 2024

Set parameter LogFile to value "C:\Projetos\Job_Rotation_Algorithms\Outputs\GurobiLogs\gurobi_log-output-31_ros-c34-BorbaRittModel-NoExtraConstraint-2.log"
Gurobi Optimizer version 11.0.1 build v11.0.1rc0 (win64 - Windows 10.0 (19045.2))

CPU model: 11th Gen Intel(R) Core(TM) i7-1165G7 @ 2.80GHz, instruction set [SSE2|AVX|AVX2|AVX512]
Thread count: 4 physical cores, 8 logical processors, using up to 1 threads


Gurobi 11.0.1 (win64) logging started Sat Mar 16 22:29:11 2024

Set parameter LogFile to value "C:\Projetos\Job_Rotation_Algorithms\Outputs\GurobiLogs\gurobi_log-output-31_ros-c34-BorbaRittModel-NoExtraConstraint-2.log"
Gurobi Optimizer version 11.0.1 build v11.0.1rc0 (win64 - Windows 10.0 (19045.2))

CPU model: 11th Gen Intel(R) Core(TM) i7-1165G7 @ 2.80GHz, instruction set [SSE2|AVX|AVX2|AVX512]
Thread count: 4 physical cores, 8 logical processors, using up to 1 threads

WLS license 901039 - registered to Bitka Analytics
Optimize a model with 808 rows, 293 columns and 2601 nonzeros
Model fingerprint: 0xa63c8424
Variable types: 2 continuous, 291 integer (291 binary)
Coefficient statistics:
  Matrix range     [1e+00, 3e+01]
  Objective range  [1e+00, 1e+00]
  Bounds range     [1e+00, 7e+01]
  RHS range        [1e+00, 7e+01]
Presolve removed 3 rows and 3 columns
Presolve time: 0.00s
Presolved: 805 rows, 290 columns, 2595 nonzeros
Variable types: 0 continuous, 290 integer (289 binary)

Root relaxation: objective 5.000000e+01, 428 iterations, 0.00 seconds (0.01 work units)

    Nodes    |    Current Node    |     Objective Bounds      |     Work
 Expl Unexpl |  Obj  Depth IntInf | Incumbent    BestBd   Gap | It/Node Time

     0     0   50.00000    0   57          -   50.00000      -     -    0s
     0     0   50.00000    0   65          -   50.00000      -     -    0s
     0     0   50.00000    0  109          -   50.00000      -     -    0s
     0     0   50.00000    0   98          -   50.00000      -     -    0s
     0     0   50.00000    0   81          -   50.00000      -     -    0s
     0     0   50.00000    0   75          -   50.00000      -     -    0s
     0     0   50.00000    0  105          -   50.00000      -     -    0s
     0     0   50.00000    0  104          -   50.00000      -     -    0s
     0     0   50.00000    0  104          -   50.00000      -     -    0s
     0     2   50.00000    0   77          -   50.00000      -     -    0s
*   92     2              27      50.0000000   50.00000  0.00%  24.8    0s

Cutting planes:
  MIR: 9
  Inf proof: 1
  Zero half: 2
  RLT: 13
  BQP: 7

Explored 93 nodes (4934 simplex iterations) in 0.25 seconds (0.26 work units)
Thread count was 1 (of 8 available processors)

Solution count 1: 50 

Optimal solution found (tolerance 1.00e-03)
Best objective 5.000000000000e+01, best bound 5.000000000000e+01, gap 0.0000%
